# Objective value = 1.9523402071221042e+03
x[0] 0
x[1] 1
x[2] 0
x[3] 1
x[4] 1
x[5] 0
x[6] 0
x[7] 1
x[8] 0
x[9] 0
x[10] 0
x[11] 1
x[12] 0
x[13] 0
x[14] 1
x[15] 0
x[16] 0
x[17] 1
x[18] 0
x[19] 0
x[20] 1
x[21] 1
x[22] 1
x[23] 1
x[24] 0
x[25] 0
x[26] 0
x[27] 1
x[28] 1
x[29] 0
x[30] 0
x[31] 0
x[32] 1
x[33] 1
x[34] 0
x[35] 1
x[36] 1
x[37] 1
x[38] 0
x[39] 0
x[40] 0
x[41] 0
x[42] 1
x[43] 0
x[44] 1
x[45] 1
x[46] 0
x[47] 0
x[48] 0
x[49] 0
x[50] 1
x[51] 0
x[52] 1
x[53] 1
x[54] 0
x[55] 0
x[56] 0
x[57] 0
x[58] 0
x[59] 1
x[60] 0
x[61] 0
x[62] 0
x[63] 1
x[64] 1
x[65] 1
x[66] 1
x[67] 1
x[68] 0
x[69] 1
x[70] 0
x[71] 1
x[72] 0
x[73] 1
x[74] 0
x[75] 0
x[76] 0
x[77] 0
x[78] 1
x[79] 1
x[80] 1
x[81] 1
x[82] 0
x[83] 1
x[84] 1
x[85] 0
x[86] 1
x[87] 1
x[88] 1
x[89] 1
x[90] 1
x[91] 0
x[92] 0
x[93] 1
x[94] 1
x[95] 1
x[96] 0
x[97] 0
x[98] 1
x[99] 1
x[100] 1
x[101] 0
x[102] 1
x[103] 1
x[104] 0
x[105] 1
x[106] 0
x[107] 1
x[108] 1
x[109] 0
x[110] 1
x[111] 0
x[112] 1
x[113] 1
x[114] 1
x[115] 0
x[116] 1
x[117] 1
x[118] 1
x[119] 1
x[120] 1
x[121] 1
x[122] 1
x[123] 1
x[124] 1
x[125] 1
x[126] 1
x[127] 1
x[128] 1
x[129] 1
x[130] 1
x[131] 1
x[132] 1
x[133] 1
x[134] 1
x[135] 1
x[136] 1
x[137] 1
x[138] 1
x[139] 1
x[140] 0
x[141] 0
x[142] 0
x[143] 0
x[144] 0
x[145] 0
x[146] 1
x[147] 0
x[148] 0
x[149] 1
x[150] 1
x[151] 1
x[152] 0
x[153] 0
x[154] 1
x[155] 1
x[156] 0
x[157] 1
x[158] 1
x[159] 0
x[160] 0
x[161] 1
x[162] 0
x[163] 1
x[164] 0
x[165] 1
x[166] 0
x[167] 1
x[168] 1
x[169] 0
x[170] 1
x[171] 0
x[172] 0
x[173] 0
x[174] 1
x[175] 0
x[176] 0
x[177] 0
x[178] 1
x[179] 0
x[180] 0
x[181] 1
x[182] 0
x[183] 0
x[184] 0
x[185] 0
x[186] 1
x[187] 0
x[188] 1
x[189] 1
x[190] 0
x[191] 0
x[192] 0
x[193] 0
x[194] 1
x[195] 0
x[196] 0
x[197] 1
x[198] 1
x[199] 1
x[200] 1
x[201] 1
x[202] 0
x[203] 0
x[204] 1
x[205] 1
x[206] 1
x[207] 1
x[208] 1
x[209] 1
x[210] 1
x[211] 1
x[212] 1
x[213] 0
x[214] 1
x[215] 0
x[216] 0
x[217] 0
x[218] 1
x[219] 0
x[220] 0
x[221] 1
x[222] 1
x[223] 1
x[224] 1
x[225] 0
x[226] 0
x[227] 1
x[228] 1
x[229] 1
x[230] 0
x[231] 1
x[232] 0
x[233] 1
x[234] 0
x[235] 0
x[236] 0
x[237] 1
x[238] 1
x[239] 0
x[240] 1
x[241] 1
x[242] 0
x[243] 1
x[244] 0
x[245] 0
x[246] 0
x[247] 1
x[248] 0
x[249] 1
x[250] 1
x[251] 0
x[252] 1
x[253] 1
x[254] 1
x[255] 0
x[256] 0
x[257] 1
x[258] 0
x[259] 0
x[260] 1
x[261] 0
x[262] 0
x[263] 0
x[264] 0
x[265] 1
x[266] 0
x[267] 0
x[268] 0
x[269] 0
x[270] 0
x[271] 1
x[272] 0
x[273] 0
x[274] 0
x[275] 1
x[276] 1
x[277] 0
x[278] 0
x[279] 0
x[280] 0
x[281] 1
x[282] 1
x[283] 1
x[284] 0
x[285] 1
x[286] 1
x[287] 1
x[288] 1
x[289] 1
x[290] 1
x[291] 1
x[292] 1
x[293] 0
x[294] 1
x[295] 1
x[296] 0
x[297] 1
x[298] 1
x[299] 1
x[300] 1
x[301] 0
x[302] 0
x[303] 0
x[304] 1
x[305] 1
x[306] 1
x[307] 1
x[308] 1
x[309] 1
x[310] 1
x[311] 1
x[312] 1
x[313] 1
x[314] 0
x[315] 1
x[316] 0
x[317] 1
x[318] 1
x[319] 1
x[320] 0
x[321] 0
x[322] 1
x[323] 0
x[324] 1
x[325] 1
x[326] 1
x[327] 1
x[328] 1
x[329] 0
x[330] 1
x[331] 1
x[332] 0
x[333] 0
x[334] 0
x[335] 0
x[336] 0
x[337] 0
x[338] 1
x[339] 0
x[340] 1
x[341] 1
x[342] 1
x[343] 1
x[344] 1
x[345] 1
x[346] 1
x[347] 0
x[348] 0
x[349] 1
x[350] 0
x[351] 1
x[352] 1
x[353] 1
x[354] 0
x[355] 1
x[356] 0
x[357] 1
x[358] 1
x[359] 1
x[360] 0
x[361] 1
x[362] 1
x[363] 1
x[364] 0
x[365] 0
x[366] 1
x[367] 0
x[368] 1
x[369] 0
x[370] 1
x[371] 1
x[372] 0
x[373] 1
x[374] 0
x[375] 0
x[376] 1
x[377] 1
x[378] 0
x[379] 1
x[380] 0
x[381] 0
x[382] 0
x[383] 1
x[384] 1
x[385] 1
x[386] 0
x[387] 0
x[388] 1
x[389] 0
x[390] 1
x[391] 1
x[392] 0
x[393] 0
x[394] 1
x[395] 0
x[396] 1
x[397] 0
x[398] 1
x[399] 0
x[400] 1
x[401] 1
x[402] 0
x[403] 0
x[404] 1
x[405] 1
x[406] 1
x[407] 0
x[408] 0
x[409] 0
x[410] 1
x[411] 1
x[412] 0
x[413] 1
x[414] 1
x[415] 0
x[416] 1
x[417] 0
x[418] 1
x[419] 1
x[420] 0
x[421] 1
x[422] 1
x[423] 0
x[424] 1
x[425] 1
x[426] 0
x[427] 1
x[428] 0
x[429] 1
x[430] 1
x[431] 0
x[432] 1
x[433] 0
x[434] 0
x[435] 1
x[436] 0
x[437] 1
x[438] 0
x[439] 0
x[440] 0
x[441] 1
x[442] 1
x[443] 0
x[444] 1
x[445] 1
x[446] 0
x[447] 1
x[448] 0
x[449] 1
x[450] 1
x[451] 1
x[452] 0
x[453] 1
x[454] 1
x[455] 1
x[456] 1
x[457] 0
x[458] 1
x[459] 1
x[460] 0
x[461] 0
x[462] 1
x[463] 0
x[464] 1
x[465] 1
x[466] 0
x[467] 0
x[468] 1
x[469] 0
x[470] 0
x[471] 0
x[472] 1
x[473] 1
x[474] 1
x[475] 1
x[476] 0
x[477] 1
x[478] 1
x[479] 1
x[480] 1
x[481] 0
x[482] 1
x[483] 1
x[484] 1
x[485] 1
x[486] 0
x[487] 0
x[488] 1
x[489] 1
x[490] 0
x[491] 0
x[492] 1
x[493] 0
x[494] 1
x[495] 0
x[496] 0
x[497] 0
x[498] 1
x[499] 0
x[500] 1
x[501] 0
x[502] 1
x[503] 1
x[504] 0
x[505] 1
x[506] 1
x[507] 0
x[508] 1
x[509] 0
x[510] 1
x[511] 1
x[512] 1
x[513] 0
x[514] 1
x[515] 0
x[516] 1
x[517] 1
x[518] 0
x[519] 0
x[520] 1
x[521] 0
x[522] 1
x[523] 1
x[524] 0
x[525] 0
x[526] 1
x[527] 0
x[528] 1
x[529] 0
x[530] 0
x[531] 1
x[532] 0
x[533] 1
x[534] 1
x[535] 0
x[536] 1
x[537] 0
x[538] 1
x[539] 1
x[540] 1
x[541] 1
x[542] 1
x[543] 1
x[544] 0
x[545] 0
x[546] 1
x[547] 1
x[548] 0
x[549] 0
x[550] 0
x[551] 0
x[552] 0
x[553] 1
x[554] 1
x[555] 1
x[556] 1
x[557] 1
x[558] 1
x[559] 1
x[560] 1
x[561] 1
x[562] 1
x[563] 1
x[564] 0
x[565] 1
x[566] 1
x[567] 0
x[568] 0
x[569] 1
x[570] 0
x[571] 1
x[572] 1
x[573] 0
x[574] 1
x[575] 1
x[576] 1
x[577] 1
x[578] 0
x[579] 0
x[580] 0
x[581] 0
x[582] 1
x[583] 1
x[584] 1
x[585] 1
x[586] 0
x[587] 0
x[588] 1
x[589] 0
x[590] 0
x[591] 1
x[592] 1
x[593] 0
x[594] 0
x[595] 1
x[596] 0
x[597] 0
x[598] 1
x[599] 0
x[600] 1
x[601] 1
x[602] 0
x[603] 0
x[604] 1
x[605] 1
x[606] 1
x[607] 1
x[608] 0
x[609] 1
x[610] 0
x[611] 0
x[612] 1
x[613] 0
x[614] 1
x[615] 1
x[616] 1
x[617] 1
x[618] 0
x[619] 1
x[620] 0
x[621] 1
x[622] 1
x[623] 0
x[624] 0
x[625] 1
x[626] 1
x[627] 0
x[628] 0
x[629] 1
x[630] 1
x[631] 1
x[632] 0
x[633] 1
x[634] 0
x[635] 1
x[636] 1
x[637] 1
x[638] 0
x[639] 1
x[640] 1
x[641] 1
x[642] 0
x[643] 0
x[644] 1
x[645] 1
x[646] 1
x[647] 0
x[648] 1
x[649] 1
x[650] 1
x[651] 1
x[652] 1
x[653] 1
x[654] 1
x[655] 0
x[656] 0
x[657] 0
x[658] 1
x[659] 1
x[660] 0
x[661] 1
x[662] 1
x[663] 1
x[664] 1
x[665] 1
x[666] 0
x[667] 1
x[668] 1
x[669] 1
x[670] 0
x[671] 0
x[672] 1
x[673] 1
x[674] 0
x[675] 1
x[676] 1
x[677] 1
x[678] 1
x[679] 0
x[680] 0
x[681] 1
x[682] 1
x[683] 1
x[684] 0
x[685] 0
x[686] 1
x[687] 0
x[688] 0
x[689] 1
x[690] 1
x[691] 0
x[692] 1
x[693] 0
x[694] 0
x[695] 0
x[696] 0
x[697] 1
x[698] 1
x[699] 1
x[700] 0
x[701] 0
x[702] 0
x[703] 0
x[704] 0
x[705] 0
x[706] 0
x[707] 1
x[708] 1
x[709] 1
x[710] 1
x[711] 0
x[712] 1
x[713] 1
x[714] 1
x[715] 1
x[716] 1
x[717] 1
x[718] 0
x[719] 0
x[720] 1
x[721] 1
x[722] 0
x[723] 1
x[724] 1
x[725] 1
x[726] 1
x[727] 1
x[728] 0
x[729] 0
x[730] 0
x[731] 0
x[732] 0
x[733] 1
x[734] 1
x[735] 1
x[736] 0
x[737] 1
x[738] 1
x[739] 0
x[740] 1
x[741] 0
x[742] 0
x[743] 1
x[744] 0
x[745] 0
x[746] 0
x[747] 0
x[748] 1
x[749] 0
x[750] 0
x[751] 1
x[752] 0
x[753] 1
x[754] 1
x[755] 1
x[756] 0
x[757] 0
x[758] 1
x[759] 1
x[760] 0
x[761] 0
x[762] 0
x[763] 1
x[764] 0
x[765] 0
x[766] 1
x[767] 0
x[768] 1
x[769] 0
x[770] 0
x[771] 1
x[772] 0
x[773] 0
x[774] 1
x[775] 1
x[776] 1
x[777] 1
x[778] 0
x[779] 0
x[780] 0
x[781] 1
x[782] 0
x[783] 1
x[784] 0
x[785] 1
x[786] 1
x[787] 1
x[788] 1
x[789] 1
x[790] 0
x[791] 1
x[792] 1
x[793] 0
x[794] 0
x[795] 1
x[796] 1
x[797] 1
x[798] 1
x[799] 0
x[800] 0
x[801] 1
x[802] 0
x[803] 1
x[804] 1
x[805] 1
x[806] 0
x[807] 0
x[808] 1
x[809] 1
x[810] 0
x[811] 1
x[812] 1
x[813] 0
x[814] 0
x[815] 1
x[816] 1
x[817] 1
x[818] 0
x[819] 1
x[820] 1
x[821] 0
x[822] 1
x[823] 1
x[824] 0
x[825] 0
x[826] 1
x[827] 1
x[828] 1
x[829] 1
x[830] 1
x[831] 1
x[832] 1
x[833] 0
x[834] 1
x[835] 1
x[836] 1
x[837] 1
x[838] 0
x[839] 1
x[840] 1
x[841] 1
x[842] 1
x[843] 1
x[844] 1
x[845] 0
x[846] 1
x[847] 0
x[848] 0
x[849] 1
x[850] 0
x[851] 1
x[852] 0
x[853] 1
x[854] 1
x[855] 0
x[856] 1
x[857] 1
x[858] 0
x[859] 0
x[860] 1
x[861] 0
x[862] 0
x[863] 0
x[864] 0
x[865] 0
x[866] 1
x[867] 0
x[868] 1
x[869] 0
x[870] 1
x[871] 1
x[872] 0
x[873] 1
x[874] 1
x[875] 0
x[876] 0
x[877] 0
x[878] 1
x[879] 0
x[880] 1
x[881] 0
x[882] 0
x[883] 0
x[884] 1
x[885] 0
x[886] 0
x[887] 1
x[888] 1
x[889] 1
x[890] 0
x[891] 1
x[892] 0
x[893] 0
x[894] 1
x[895] 1
x[896] 1
x[897] 1
x[898] 1
x[899] 1
x[900] 1
x[901] 0
x[902] 1
x[903] 1
x[904] 1
x[905] 0
x[906] 0
x[907] 0
x[908] 0
x[909] 0
x[910] 0
x[911] 1
x[912] 0
x[913] 0
x[914] 1
x[915] 1
x[916] 0
x[917] 1
x[918] 0
x[919] 0
x[920] 0
x[921] 0
x[922] 1
x[923] 1
x[924] 0
x[925] 1
x[926] 0
x[927] 1
x[928] 1
x[929] 0
x[930] 0
x[931] 1
x[932] 1
x[933] 1
x[934] 1
x[935] 0
x[936] 1
x[937] 1
x[938] 1
x[939] 0
x[940] 0
x[941] 1
x[942] 0
x[943] 1
x[944] 0
x[945] 1
x[946] 0
x[947] 1
x[948] 1
x[949] 0
x[950] 0
x[951] 1
x[952] 1
x[953] 0
x[954] 1
x[955] 1
x[956] 1
x[957] 1
x[958] 1
x[959] 0
x[960] 1
x[961] 1
x[962] 0
x[963] 0
x[964] 0
x[965] 0
x[966] 1
x[967] 0
x[968] 1
x[969] 1
x[970] 1
x[971] 1
x[972] 1
x[973] 0
x[974] 1
x[975] 0
x[976] 0
x[977] 0
x[978] 0
x[979] 1
x[980] 1
x[981] 1
x[982] 1
x[983] 1
x[984] 0
x[985] 1
x[986] 0
x[987] 1
x[988] 0
x[989] 1
x[990] 1
x[991] 0
x[992] 1
x[993] 1
x[994] 1
x[995] 0
x[996] 0
x[997] 1
x[998] 0
x[999] 1
